NAME: Croatia50_EUC2D
TYPE: TSP
COMMENT: 50-city Croatia (projected EUC_2D)
DIMENSION: 50
EDGE_WEIGHT_TYPE: EUC_2D
NODE_COORD_SECTION
1 1257.056962 5094.395564
2 1284.955904 5148.958915
3 1292.585443 5157.676597
4 1323.575528 5132.980204
5 1301.135246 5117.301719
6 1325.250881 5103.691460
7 1367.284133 5096.185803
8 1248.955493 5132.646619
9 1287.976258 5057.945867
10 1223.502723 5058.579678
11 1135.951799 5040.143560
12 1125.160328 5041.288867
13 1155.599828 5023.342006
14 1172.416275 5002.593033
15 1209.313354 4953.300322
16 1198.026356 4905.853447
17 1250.158915 4863.110117
18 1293.104566 4837.879988
19 1278.144378 4838.836264
20 1297.312611 4841.827408
21 1308.772650 4859.618596
22 1338.472793 4814.395619
23 1354.180204 4831.008141
24 1312.595285 4830.785752
25 1371.091037 4787.608762
26 1388.127719 4787.430850
27 1423.215731 4742.541458
28 1089.340823 4988.938296
29 1072.752476 5012.800727
30 1069.228730 5028.868394
31 1063.864456 5052.363882
32 1096.207408 5030.458481
33 1110.601280 5014.335217
34 1391.037955 5041.577974
35 1416.939059 5021.496170
36 1367.331326 5032.148644
37 1479.084405 5035.684643
38 1494.610910 5042.845596
39 1470.495275 5065.051223
40 1448.015665 5038.019736
41 1422.665146 5058.101540
42 1448.668502 5077.160351
43 1291.492138 5138.284202
44 1251.834268 5117.857694
45 1264.403343 5082.953606
46 1236.527997 5093.061225
47 1243.370985 5098.776644
48 1281.322042 5052.686347
49 1274.266685 4897.124645
50 1185.417953 4951.176499
EOF
